36
100
78	1
77	1
76	1
75	1
73	1
70	1
69	3
68	1
67	1
66	1
65	2
63	1
62	2
61	1
59	1
57	1
52	2
51	1
50	2
49	1
48	1
47	2
43	1
42	4
41	2
37	1
36	1
35	1
33	2
30	2
29	1
28	1
27	2
22	1
21	1
20	1
